%chk=dimantra_A_WB97X_TDA
%rwf=dimantra_A_WB97X_TDA
%Mem=6Gb
%Nproc=6
#P WB97XD 6-31G** nosymm scf=direct gfinput gfoldprint iop(6/7=3) TDA=(nstates=60,singlets)

A

0 1
C      -1.569991    0.173255    3.351213
C      -0.767361    0.935457    2.573187
C      -0.374166    0.491491    1.272799
C       0.445777    1.247677    0.438674
C      -0.827504   -0.790476    0.824008
C      -1.674837   -1.550272    1.682964
C      -2.031882   -1.086453    2.902422
H      -1.825398    0.493296    4.221204
H      -0.428882    1.786693    2.878512
H       0.771291    2.105530    0.754115
H      -1.984436   -2.436399    1.351889
H      -2.641377   -1.630282    3.494679
C       0.827504    0.790476   -0.824008
C      -0.445777   -1.247677   -0.438674
C       0.374166   -0.491491   -1.272799
C       1.674837    1.550272   -1.682964
H      -0.771291   -2.105530   -0.754115
C       0.767361   -0.935457   -2.573187
C       2.031882    1.086453   -2.902422
H       1.984436    2.436399   -1.351889
C       1.569991   -0.173255   -3.351213
H       0.428882   -1.786693   -2.878512
H       2.641377    1.630282   -3.494679
H       1.825398   -0.493296   -4.221204
C      -1.569991    6.189055    3.351213
C      -0.767361    6.951257    2.573187
C      -0.374166    6.507291    1.272799
C       0.445777    7.263477    0.438674
C      -0.827504    5.225324    0.824008
C      -1.674837    4.465528    1.682964
C      -2.031882    4.929347    2.902422
H      -1.825398    6.509096    4.221204
H      -0.428882    7.802493    2.878512
H       0.771291    8.121330    0.754115
H      -1.984436    3.579401    1.351889
H      -2.641377    4.385518    3.494679
C       0.827504    6.806276   -0.824008
C      -0.445777    4.768123   -0.438674
C       0.374166    5.524309   -1.272799
C       1.674837    7.566072   -1.682964
H      -0.771291    3.910270   -0.754115
C       0.767361    5.080343   -2.573187
C       2.031882    7.102253   -2.902422
H       1.984436    8.452199   -1.351889
C       1.569991    5.842545   -3.351213
H       0.428882    4.229107   -2.878512
H       2.641377    7.646082   -3.494679
H       1.825398    5.522504   -4.221204

